data/CAV19/sygus/CAV/32bits_signed/32bits_unsignedcegis_danger_benchmark_svcomp_simple_true-unreach-call2.sl_32bits_unsigned.sl_32bits_signed.sl
(set-logic BV)

(synth-inv inv_fun ((x (_ BitVec 32))))

(define-fun pre_fun ((x (_ BitVec 32))) Bool
       ( = x x ))
(define-fun trans_fun ((x (_ BitVec 32)) (x! (_ BitVec 32))) Bool
       ( and ( bvslt x #x0fffffff ) ( = x! ( bvadd x #x00000001 ) ) ))
(define-fun post_fun ((x (_ BitVec 32))) Bool
       ( or ( bvsge x #x0fffffff ) ( bvslt x #x0fffffff ) ))

(inv-constraint inv_fun pre_fun trans_fun post_fun)

(check-synth)

